
<<< setup


<<< generate

CPXPARAM_Simplex_Tolerances_Optimality           0.001
CPXPARAM_Simplex_Tolerances_Feasibility          0.001
CPXPARAM_TimeLimit                               3600
CPXPARAM_Threads                                 8
CPXPARAM_MIP_Tolerances_AbsMIPGap                0.001
CPXPARAM_MIP_Tolerances_MIPGap                   0.001
CPXPARAM_MIP_Tolerances_Integrality              0.001
CPXPARAM_MIP_Display                             4
CPXPARAM_MIP_PolishAfter_Solutions               1
Tried aggregator 1 time.
MIQCP Presolve eliminated 2 rows and 2 columns.
Reduced MIQCP has 133 rows, 387 columns, and 4489 nonzeros.
Reduced MIQCP has 0 binaries, 32 generals, 0 SOSs, and 0 indicators.
Reduced MIQCP has 66 quadratic constraints.
Presolve time = 0.00 sec. (1.92 ticks)
MIP emphasis: balance optimality and feasibility.
MIP search method: dynamic search.
Parallel mode: deterministic, using up to 8 threads.
Initializing dual steep norms . . .

Iteration log . . .
Iteration:     1   Scaled dual infeas =          6589.756548

Iteration log . . .
Iteration:     1    Scaled infeas =             0.000000
Root relaxation solution time = 0.00 sec. (0.33 ticks)

        Nodes                                         Cuts/
   Node  Left     Objective  IInf  Best Integer    Best Bound    ItCnt     Gap

      0     0  -151496.1746    32                -151496.1746       19         
*     0+    0                      -492888.3212  -151496.1746           -69.26%
Found incumbent of value -492888.321176 after 0.33 sec. (108.99 ticks)
      0     0        cutoff        -492888.3212  -151496.1746       19  -69.26%
Elapsed time = 0.33 sec. (109.00 ticks, tree = 0.01 MB, solutions = 1)

Root node processing (before b&c):
  Real time             =    0.33 sec. (109.02 ticks)
Parallel b&c, 8 threads:
  Real time             =    0.00 sec. (0.00 ticks)
  Sync time (average)   =    0.00 sec.
  Wait time (average)   =    0.00 sec.
                          ------------
Total (root+branch&cut) =    0.33 sec. (109.02 ticks)

<<< solve


OBJECTIVE: -492888.3
X*: [10002 9998.8 10030 10000 10014 10001 10039 10004 10025 10003 10020 10007 10030
     10008 10014 10014 10002 10012 10015 10016 10014 10021 9988.3 10014 9995.6
     10017 9974.8 10021 9983.2 10019 9968.8 10052] Z*: [9996 10004 9996 10005 9996 10004 9996 10005 9996 10005 9996 10005 9996 10005
     9996 10005 9996 10005 9996 10005 9996 10005 9996 10004 9996 10004 9996
     10005 9996 10005 9996 10005]
f*:7297.603595565

<<< post process


<<< done

